K2Cr3As3                                
   1.00000000000000     
     4.99160000000000   -8.64570481106081    0.00000000000000
     4.99160000000000    8.64570481106081    0.00000000000000
     0.00000000000000    0.00000000000000    4.23040000000000
   K    Cr   As
     4     6     6
Direct
  0.3333333333333333  0.6666666666666667  0.0000000000000000
  0.5387500000000000  0.0775000000000000  0.5000000000000000
  0.9225000000000000  0.4612500000000000  0.5000000000000000
  0.5387500000000000  0.4612500000000000  0.5000000000000000
  0.8204000000000000  0.9102000000000000  0.0000000000000000
  0.0898000000000000  0.9102000000000000  0.0000000000000000
  0.0898000000000000  0.1796000000000000  0.0000000000000000
  0.9127000000000000  0.0873000000000000  0.5000000000000000
  0.1746000000000000  0.0873000000000000  0.5000000000000000
  0.9127000000000000  0.8254000000000000  0.5000000000000000
  0.8339000000000000  0.1661000000000000  0.0000000000000000
  0.8339000000000000  0.6678000000000000  0.0000000000000000
  0.3322000000000000  0.1661000000000000  0.0000000000000000
  0.6648000000000000  0.8324000000000000  0.5000000000000000
  0.1676000000000000  0.8324000000000000  0.5000000000000000
  0.1676000000000000  0.3352000000000000  0.5000000000000000
