SrVO3                                   
  3.838
   1.0  0.0  0.0
   0.0  1.0  0.0
   0.0  0.0  1.0
  Sr  V  O
   1  1  3
Direct
  0.50   0.50   0.50
  0.00   0.00   0.00
  0.50   0.00   0.00
  0.00   0.50   0.00
  0.00   0.00   0.50
