SrVO3                                   
  3.838
     2.0000000000000000    0.0000000000000000    0.0000000000000000
     0.0000000000000000    2.0000000000000000    0.0000000000000000
     0.0000000000000000    0.0000000000000000    2.0000000000000000
  Sr  V  O
       8       8      24
Direct
    0.2500000000000000    0.2500000000000000    0.2500000000000000
    0.2500000000000000    0.2500000000000000    0.7500000000000000
    0.2500000000000000    0.7500000000000000    0.2500000000000000
    0.2500000000000000    0.7500000000000000    0.7500000000000000
    0.7500000000000000    0.2500000000000000    0.2500000000000000
    0.7500000000000000    0.2500000000000000    0.7500000000000000
    0.7500000000000000    0.7500000000000000    0.2500000000000000
    0.7500000000000000    0.7500000000000000    0.7500000000000000
    0.0000000000000000    0.0000000000000000    0.0000000000000000
    0.0000000000000000    0.0000000000000000    0.5000000000000000
    0.0000000000000000    0.5000000000000000    0.0000000000000000
    0.0000000000000000    0.5000000000000000    0.5000000000000000
    0.5000000000000000    0.0000000000000000    0.0000000000000000
    0.5000000000000000    0.0000000000000000    0.5000000000000000
    0.5000000000000000    0.5000000000000000    0.0000000000000000
    0.5000000000000000    0.5000000000000000    0.5000000000000000
    0.2500000000000000    0.0000000000000000    0.0000000000000000
    0.2500000000000000    0.0000000000000000    0.5000000000000000
    0.2500000000000000    0.5000000000000000    0.0000000000000000
    0.2500000000000000    0.5000000000000000    0.5000000000000000
    0.7500000000000000    0.0000000000000000    0.0000000000000000
    0.7500000000000000    0.0000000000000000    0.5000000000000000
    0.7500000000000000    0.5000000000000000    0.0000000000000000
    0.7500000000000000    0.5000000000000000    0.5000000000000000
    0.0000000000000000    0.2500000000000000    0.0000000000000000
    0.0000000000000000    0.2500000000000000    0.5000000000000000
    0.0000000000000000    0.7500000000000000    0.0000000000000000
    0.0000000000000000    0.7500000000000000    0.5000000000000000
    0.5000000000000000    0.2500000000000000    0.0000000000000000
    0.5000000000000000    0.2500000000000000    0.5000000000000000
    0.5000000000000000    0.7500000000000000    0.0000000000000000
    0.5000000000000000    0.7500000000000000    0.5000000000000000
    0.0000000000000000    0.0000000000000000    0.2500000000000000
    0.0000000000000000    0.0000000000000000    0.7500000000000000
    0.0000000000000000    0.5000000000000000    0.2500000000000000
    0.0000000000000000    0.5000000000000000    0.7500000000000000
    0.5000000000000000    0.0000000000000000    0.2500000000000000
    0.5000000000000000    0.0000000000000000    0.7500000000000000
    0.5000000000000000    0.5000000000000000    0.2500000000000000
    0.5000000000000000    0.5000000000000000    0.7500000000000000
