K2Cr3As3                                
   1.00000000000000     
    14.97480000000000   -8.64570481106081    0.00000000000000
     0.00000000000000   17.29140962212162    0.00000000000000
     0.00000000000000    0.00000000000000   16.92160000000000
   K Cr1 Cr2 Cr3 Cr4 Cr5 Cr6 As1 As2 As3 As4 As5 As6
  48   12 12 12 12 12 12  12 12 12 12 12 12
Direct
    0.3333333333333333    0.3333333333333334    0.0000000000000000
    0.3333333333333333    0.3333333333333334    0.2500000000000000
    0.3333333333333333    0.3333333333333334    0.5000000000000000
    0.3333333333333333    0.3333333333333334    0.7500000000000000
    0.6666666666666666    0.0000000000000001    0.0000000000000000
    0.6666666666666666    0.0000000000000001    0.2500000000000000
    0.6666666666666666    0.0000000000000001    0.5000000000000000
    0.6666666666666666    0.0000000000000001    0.7500000000000000
    1.0000000000000000    0.6666666666666667    0.0000000000000000
    1.0000000000000000    0.6666666666666667    0.2500000000000000
    1.0000000000000000    0.6666666666666667    0.5000000000000000
    1.0000000000000000    0.6666666666666667    0.7500000000000000
    0.2054166666666667    0.8720833333333333    0.1250000000000000
    0.2054166666666667    0.8720833333333333    0.3750000000000000
    0.2054166666666667    0.8720833333333333    0.6250000000000000
    0.2054166666666667    0.8720833333333333    0.8750000000000000
    0.5387500000000000    0.5387500000000001    0.1250000000000000
    0.5387500000000000    0.5387500000000001    0.3750000000000000
    0.5387500000000000    0.5387500000000001    0.6250000000000000
    0.5387500000000000    0.5387500000000001    0.8750000000000000
    0.8720833333333333    0.2054166666666667    0.1250000000000000
    0.8720833333333333    0.2054166666666667    0.3750000000000000
    0.8720833333333333    0.2054166666666667    0.6250000000000000
    0.8720833333333333    0.2054166666666667    0.8750000000000000
    0.4612500000000000    0.0000000000000000    0.1250000000000000
    0.4612500000000000    0.0000000000000000    0.3750000000000000
    0.4612500000000000    0.0000000000000000    0.6250000000000000
    0.4612500000000000    0.0000000000000000    0.8750000000000000
    0.7945833333333333    0.6666666666666667    0.1250000000000000
    0.7945833333333333    0.6666666666666667    0.3750000000000000
    0.7945833333333333    0.6666666666666667    0.6250000000000000
    0.7945833333333333    0.6666666666666667    0.8750000000000000
    0.1279166666666667    0.3333333333333334    0.1250000000000000
    0.1279166666666667    0.3333333333333334    0.3750000000000000
    0.1279166666666667    0.3333333333333334    0.6250000000000000
    0.1279166666666667    0.3333333333333334    0.8750000000000000
    0.3333333333333333    0.1279166666666667    0.1250000000000000
    0.3333333333333333    0.1279166666666667    0.3750000000000000
    0.3333333333333333    0.1279166666666667    0.6250000000000000
    0.3333333333333333    0.1279166666666667    0.8750000000000000
    0.6666666666666666    0.7945833333333333    0.1250000000000000
    0.6666666666666666    0.7945833333333333    0.3750000000000000
    0.6666666666666666    0.7945833333333333    0.6250000000000000
    0.6666666666666666    0.7945833333333333    0.8750000000000000
    1.0000000000000000    0.4612500000000000    0.1250000000000000
    1.0000000000000000    0.4612500000000000    0.3750000000000000
    1.0000000000000000    0.4612500000000000    0.6250000000000000
    1.0000000000000000    0.4612500000000000    0.8750000000000000
    0.5768666666666666    0.3333333333333333    0.0000000000000000
    0.5768666666666666    0.3333333333333333    0.2500000000000000
    0.5768666666666666    0.3333333333333333    0.5000000000000000
    0.5768666666666666    0.3333333333333333    0.7500000000000000
    0.9102000000000000    0.0000000000000000    0.0000000000000000
    0.9102000000000000    0.0000000000000000    0.2500000000000000
    0.9102000000000000    0.0000000000000000    0.5000000000000000
    0.9102000000000000    0.0000000000000000    0.7500000000000000
    0.2435333333333334    0.6666666666666667    0.0000000000000000
    0.2435333333333334    0.6666666666666667    0.2500000000000000
    0.2435333333333334    0.6666666666666667    0.5000000000000000
    0.2435333333333334    0.6666666666666667    0.7500000000000000
    0.3333333333333333    0.5768666666666666    0.0000000000000000
    0.3333333333333333    0.5768666666666666    0.2500000000000000
    0.3333333333333333    0.5768666666666666    0.5000000000000000
    0.3333333333333333    0.5768666666666666    0.7500000000000000
    0.6666666666666666    0.2435333333333333    0.0000000000000000
    0.6666666666666666    0.2435333333333333    0.2500000000000000
    0.6666666666666666    0.2435333333333333    0.5000000000000000
    0.6666666666666666    0.2435333333333333    0.7500000000000000
    1.0000000000000000    0.9102000000000000    0.0000000000000000
    1.0000000000000000    0.9102000000000000    0.2500000000000000
    1.0000000000000000    0.9102000000000000    0.5000000000000000
    1.0000000000000000    0.9102000000000000    0.7500000000000000
    0.0898000000000000    0.0898000000000000    0.0000000000000000
    0.0898000000000000    0.0898000000000000    0.2500000000000000
    0.0898000000000000    0.0898000000000000    0.5000000000000000
    0.0898000000000000    0.0898000000000000    0.7500000000000000
    0.4231333333333334    0.7564666666666667    0.0000000000000000
    0.4231333333333334    0.7564666666666667    0.2500000000000000
    0.4231333333333334    0.7564666666666667    0.5000000000000000
    0.4231333333333334    0.7564666666666667    0.7500000000000000
    0.7564666666666667    0.4231333333333334    0.0000000000000000
    0.7564666666666667    0.4231333333333334    0.2500000000000000
    0.7564666666666667    0.4231333333333334    0.5000000000000000
    0.7564666666666667    0.4231333333333334    0.7500000000000000
    0.3333333333333333    0.7539666666666667    0.1250000000000000
    0.3333333333333333    0.7539666666666667    0.3750000000000000
    0.3333333333333333    0.7539666666666667    0.6250000000000000
    0.3333333333333333    0.7539666666666667    0.8750000000000000
    0.6666666666666666    0.4206333333333333    0.1250000000000000
    0.6666666666666666    0.4206333333333333    0.3750000000000000
    0.6666666666666666    0.4206333333333333    0.6250000000000000
    0.6666666666666666    0.4206333333333333    0.8750000000000000
    1.0000000000000000    0.0872999999999999    0.1250000000000000
    1.0000000000000000    0.0872999999999999    0.3750000000000000
    1.0000000000000000    0.0872999999999999    0.6250000000000000
    1.0000000000000000    0.0872999999999999    0.8750000000000000
    0.0873000000000000    0.0000000000000000    0.1250000000000000
    0.0873000000000000    0.0000000000000000    0.3750000000000000
    0.0873000000000000    0.0000000000000000    0.6250000000000000
    0.0873000000000000    0.0000000000000000    0.8750000000000000
    0.4206333333333334    0.6666666666666667    0.1250000000000000
    0.4206333333333334    0.6666666666666667    0.3750000000000000
    0.4206333333333334    0.6666666666666667    0.6250000000000000
    0.4206333333333334    0.6666666666666667    0.8750000000000000
    0.7539666666666666    0.3333333333333334    0.1250000000000000
    0.7539666666666666    0.3333333333333334    0.3750000000000000
    0.7539666666666666    0.3333333333333334    0.6250000000000000
    0.7539666666666666    0.3333333333333334    0.8750000000000000
    0.5793666666666667    0.2460333333333334    0.1250000000000000
    0.5793666666666667    0.2460333333333334    0.3750000000000000
    0.5793666666666667    0.2460333333333334    0.6250000000000000
    0.5793666666666667    0.2460333333333334    0.8750000000000000
    0.9127000000000000    0.9127000000000000    0.1250000000000000
    0.9127000000000000    0.9127000000000000    0.3750000000000000
    0.9127000000000000    0.9127000000000000    0.6250000000000000
    0.9127000000000000    0.9127000000000000    0.8750000000000000
    0.2460333333333333    0.5793666666666668    0.1250000000000000
    0.2460333333333333    0.5793666666666668    0.3750000000000000
    0.2460333333333333    0.5793666666666668    0.6250000000000000
    0.2460333333333333    0.5793666666666668    0.8750000000000000
    0.3333333333333333    0.8327666666666667    0.0000000000000000
    0.3333333333333333    0.8327666666666667    0.2500000000000000
    0.3333333333333333    0.8327666666666667    0.5000000000000000
    0.3333333333333333    0.8327666666666667    0.7500000000000000
    0.6666666666666666    0.4994333333333333    0.0000000000000000
    0.6666666666666666    0.4994333333333333    0.2500000000000000
    0.6666666666666666    0.4994333333333333    0.5000000000000000
    0.6666666666666666    0.4994333333333333    0.7500000000000000
    1.0000000000000000    0.1661000000000000    0.0000000000000000
    1.0000000000000000    0.1661000000000000    0.2500000000000000
    1.0000000000000000    0.1661000000000000    0.5000000000000000
    1.0000000000000000    0.1661000000000000    0.7500000000000000
    0.5005666666666667    0.1672333333333333    0.0000000000000000
    0.5005666666666667    0.1672333333333333    0.2500000000000000
    0.5005666666666667    0.1672333333333333    0.5000000000000000
    0.5005666666666667    0.1672333333333333    0.7500000000000000
    0.8339000000000000    0.8339000000000000    0.0000000000000000
    0.8339000000000000    0.8339000000000000    0.2500000000000000
    0.8339000000000000    0.8339000000000000    0.5000000000000000
    0.8339000000000000    0.8339000000000000    0.7500000000000000
    0.1672333333333333    0.5005666666666667    0.0000000000000000
    0.1672333333333333    0.5005666666666667    0.2500000000000000
    0.1672333333333333    0.5005666666666667    0.5000000000000000
    0.1672333333333333    0.5005666666666667    0.7500000000000000
    0.1661000000000000    0.0000000000000000    0.0000000000000000
    0.1661000000000000    0.0000000000000000    0.2500000000000000
    0.1661000000000000    0.0000000000000000    0.5000000000000000
    0.1661000000000000    0.0000000000000000    0.7500000000000000
    0.4994333333333333    0.6666666666666667    0.0000000000000000
    0.4994333333333333    0.6666666666666667    0.2500000000000000
    0.4994333333333333    0.6666666666666667    0.5000000000000000
    0.4994333333333333    0.6666666666666667    0.7500000000000000
    0.8327666666666667    0.3333333333333334    0.0000000000000000
    0.8327666666666667    0.3333333333333334    0.2500000000000000
    0.8327666666666667    0.3333333333333334    0.5000000000000000
    0.8327666666666667    0.3333333333333334    0.7500000000000000
    0.4990666666666666    0.3333333333333333    0.1250000000000000
    0.4990666666666666    0.3333333333333333    0.3750000000000000
    0.4990666666666666    0.3333333333333333    0.6250000000000000
    0.4990666666666666    0.3333333333333333    0.8750000000000000
    0.8323999999999999    0.0000000000000000    0.1250000000000000
    0.8323999999999999    0.0000000000000000    0.3750000000000000
    0.8323999999999999    0.0000000000000000    0.6250000000000000
    0.8323999999999999    0.0000000000000000    0.8750000000000000
    0.1657333333333333    0.6666666666666667    0.1250000000000000
    0.1657333333333333    0.6666666666666667    0.3750000000000000
    0.1657333333333333    0.6666666666666667    0.6250000000000000
    0.1657333333333333    0.6666666666666667    0.8750000000000000
    0.3333333333333333    0.4990666666666667    0.1250000000000000
    0.3333333333333333    0.4990666666666667    0.3750000000000000
    0.3333333333333333    0.4990666666666667    0.6250000000000000
    0.3333333333333333    0.4990666666666667    0.8750000000000000
    0.6666666666666666    0.1657333333333334    0.1250000000000000
    0.6666666666666666    0.1657333333333334    0.3750000000000000
    0.6666666666666666    0.1657333333333334    0.6250000000000000
    0.6666666666666666    0.1657333333333334    0.8750000000000000
    1.0000000000000000    0.8324000000000000    0.1250000000000000
    1.0000000000000000    0.8324000000000000    0.3750000000000000
    1.0000000000000000    0.8324000000000000    0.6250000000000000
    1.0000000000000000    0.8324000000000000    0.8750000000000000
    0.1676000000000000    0.1676000000000000    0.1250000000000000
    0.1676000000000000    0.1676000000000000    0.3750000000000000
    0.1676000000000000    0.1676000000000000    0.6250000000000000
    0.1676000000000000    0.1676000000000000    0.8750000000000000
    0.5009333333333333    0.8342666666666667    0.1250000000000000
    0.5009333333333333    0.8342666666666667    0.3750000000000000
    0.5009333333333333    0.8342666666666667    0.6250000000000000
    0.5009333333333333    0.8342666666666667    0.8750000000000000
    0.8342666666666667    0.5009333333333335    0.1250000000000000
    0.8342666666666667    0.5009333333333335    0.3750000000000000
    0.8342666666666667    0.5009333333333335    0.6250000000000000
    0.8342666666666667    0.5009333333333335    0.8750000000000000
