SrVO3                                   
  3.838
     6.0000000000000000    0.0000000000000000    0.0000000000000000
     0.0000000000000000    6.0000000000000000    0.0000000000000000
     0.0000000000000000    0.0000000000000000    6.0000000000000000
  Sr  V  O
     216     216     648
Direct
    0.0833333333333333    0.0833333333333333    0.0833333333333333
    0.0833333333333333    0.0833333333333333    0.2500000000000000
    0.0833333333333333    0.0833333333333333    0.4166666666666667
    0.0833333333333333    0.0833333333333333    0.5833333333333334
    0.0833333333333333    0.0833333333333333    0.7500000000000000
    0.0833333333333333    0.0833333333333333    0.9166666666666666
    0.0833333333333333    0.2500000000000000    0.0833333333333333
    0.0833333333333333    0.2500000000000000    0.2500000000000000
    0.0833333333333333    0.2500000000000000    0.4166666666666667
    0.0833333333333333    0.2500000000000000    0.5833333333333334
    0.0833333333333333    0.2500000000000000    0.7500000000000000
    0.0833333333333333    0.2500000000000000    0.9166666666666666
    0.0833333333333333    0.4166666666666667    0.0833333333333333
    0.0833333333333333    0.4166666666666667    0.2500000000000000
    0.0833333333333333    0.4166666666666667    0.4166666666666667
    0.0833333333333333    0.4166666666666667    0.5833333333333334
    0.0833333333333333    0.4166666666666667    0.7500000000000000
    0.0833333333333333    0.4166666666666667    0.9166666666666666
    0.0833333333333333    0.5833333333333334    0.0833333333333333
    0.0833333333333333    0.5833333333333334    0.2500000000000000
    0.0833333333333333    0.5833333333333334    0.4166666666666667
    0.0833333333333333    0.5833333333333334    0.5833333333333334
    0.0833333333333333    0.5833333333333334    0.7500000000000000
    0.0833333333333333    0.5833333333333334    0.9166666666666666
    0.0833333333333333    0.7500000000000000    0.0833333333333333
    0.0833333333333333    0.7500000000000000    0.2500000000000000
    0.0833333333333333    0.7500000000000000    0.4166666666666667
    0.0833333333333333    0.7500000000000000    0.5833333333333334
    0.0833333333333333    0.7500000000000000    0.7500000000000000
    0.0833333333333333    0.7500000000000000    0.9166666666666666
    0.0833333333333333    0.9166666666666666    0.0833333333333333
    0.0833333333333333    0.9166666666666666    0.2500000000000000
    0.0833333333333333    0.9166666666666666    0.4166666666666667
    0.0833333333333333    0.9166666666666666    0.5833333333333334
    0.0833333333333333    0.9166666666666666    0.7500000000000000
    0.0833333333333333    0.9166666666666666    0.9166666666666666
    0.2500000000000000    0.0833333333333333    0.0833333333333333
    0.2500000000000000    0.0833333333333333    0.2500000000000000
    0.2500000000000000    0.0833333333333333    0.4166666666666667
    0.2500000000000000    0.0833333333333333    0.5833333333333334
    0.2500000000000000    0.0833333333333333    0.7500000000000000
    0.2500000000000000    0.0833333333333333    0.9166666666666666
    0.2500000000000000    0.2500000000000000    0.0833333333333333
    0.2500000000000000    0.2500000000000000    0.2500000000000000
    0.2500000000000000    0.2500000000000000    0.4166666666666667
    0.2500000000000000    0.2500000000000000    0.5833333333333334
    0.2500000000000000    0.2500000000000000    0.7500000000000000
    0.2500000000000000    0.2500000000000000    0.9166666666666666
    0.2500000000000000    0.4166666666666667    0.0833333333333333
    0.2500000000000000    0.4166666666666667    0.2500000000000000
    0.2500000000000000    0.4166666666666667    0.4166666666666667
    0.2500000000000000    0.4166666666666667    0.5833333333333334
    0.2500000000000000    0.4166666666666667    0.7500000000000000
    0.2500000000000000    0.4166666666666667    0.9166666666666666
    0.2500000000000000    0.5833333333333334    0.0833333333333333
    0.2500000000000000    0.5833333333333334    0.2500000000000000
    0.2500000000000000    0.5833333333333334    0.4166666666666667
    0.2500000000000000    0.5833333333333334    0.5833333333333334
    0.2500000000000000    0.5833333333333334    0.7500000000000000
    0.2500000000000000    0.5833333333333334    0.9166666666666666
    0.2500000000000000    0.7500000000000000    0.0833333333333333
    0.2500000000000000    0.7500000000000000    0.2500000000000000
    0.2500000000000000    0.7500000000000000    0.4166666666666667
    0.2500000000000000    0.7500000000000000    0.5833333333333334
    0.2500000000000000    0.7500000000000000    0.7500000000000000
    0.2500000000000000    0.7500000000000000    0.9166666666666666
    0.2500000000000000    0.9166666666666666    0.0833333333333333
    0.2500000000000000    0.9166666666666666    0.2500000000000000
    0.2500000000000000    0.9166666666666666    0.4166666666666667
    0.2500000000000000    0.9166666666666666    0.5833333333333334
    0.2500000000000000    0.9166666666666666    0.7500000000000000
    0.2500000000000000    0.9166666666666666    0.9166666666666666
    0.4166666666666667    0.0833333333333333    0.0833333333333333
    0.4166666666666667    0.0833333333333333    0.2500000000000000
    0.4166666666666667    0.0833333333333333    0.4166666666666667
    0.4166666666666667    0.0833333333333333    0.5833333333333334
    0.4166666666666667    0.0833333333333333    0.7500000000000000
    0.4166666666666667    0.0833333333333333    0.9166666666666666
    0.4166666666666667    0.2500000000000000    0.0833333333333333
    0.4166666666666667    0.2500000000000000    0.2500000000000000
    0.4166666666666667    0.2500000000000000    0.4166666666666667
    0.4166666666666667    0.2500000000000000    0.5833333333333334
    0.4166666666666667    0.2500000000000000    0.7500000000000000
    0.4166666666666667    0.2500000000000000    0.9166666666666666
    0.4166666666666667    0.4166666666666667    0.0833333333333333
    0.4166666666666667    0.4166666666666667    0.2500000000000000
    0.4166666666666667    0.4166666666666667    0.4166666666666667
    0.4166666666666667    0.4166666666666667    0.5833333333333334
    0.4166666666666667    0.4166666666666667    0.7500000000000000
    0.4166666666666667    0.4166666666666667    0.9166666666666666
    0.4166666666666667    0.5833333333333334    0.0833333333333333
    0.4166666666666667    0.5833333333333334    0.2500000000000000
    0.4166666666666667    0.5833333333333334    0.4166666666666667
    0.4166666666666667    0.5833333333333334    0.5833333333333334
    0.4166666666666667    0.5833333333333334    0.7500000000000000
    0.4166666666666667    0.5833333333333334    0.9166666666666666
    0.4166666666666667    0.7500000000000000    0.0833333333333333
    0.4166666666666667    0.7500000000000000    0.2500000000000000
    0.4166666666666667    0.7500000000000000    0.4166666666666667
    0.4166666666666667    0.7500000000000000    0.5833333333333334
    0.4166666666666667    0.7500000000000000    0.7500000000000000
    0.4166666666666667    0.7500000000000000    0.9166666666666666
    0.4166666666666667    0.9166666666666666    0.0833333333333333
    0.4166666666666667    0.9166666666666666    0.2500000000000000
    0.4166666666666667    0.9166666666666666    0.4166666666666667
    0.4166666666666667    0.9166666666666666    0.5833333333333334
    0.4166666666666667    0.9166666666666666    0.7500000000000000
    0.4166666666666667    0.9166666666666666    0.9166666666666666
    0.5833333333333334    0.0833333333333333    0.0833333333333333
    0.5833333333333334    0.0833333333333333    0.2500000000000000
    0.5833333333333334    0.0833333333333333    0.4166666666666667
    0.5833333333333334    0.0833333333333333    0.5833333333333334
    0.5833333333333334    0.0833333333333333    0.7500000000000000
    0.5833333333333334    0.0833333333333333    0.9166666666666666
    0.5833333333333334    0.2500000000000000    0.0833333333333333
    0.5833333333333334    0.2500000000000000    0.2500000000000000
    0.5833333333333334    0.2500000000000000    0.4166666666666667
    0.5833333333333334    0.2500000000000000    0.5833333333333334
    0.5833333333333334    0.2500000000000000    0.7500000000000000
    0.5833333333333334    0.2500000000000000    0.9166666666666666
    0.5833333333333334    0.4166666666666667    0.0833333333333333
    0.5833333333333334    0.4166666666666667    0.2500000000000000
    0.5833333333333334    0.4166666666666667    0.4166666666666667
    0.5833333333333334    0.4166666666666667    0.5833333333333334
    0.5833333333333334    0.4166666666666667    0.7500000000000000
    0.5833333333333334    0.4166666666666667    0.9166666666666666
    0.5833333333333334    0.5833333333333334    0.0833333333333333
    0.5833333333333334    0.5833333333333334    0.2500000000000000
    0.5833333333333334    0.5833333333333334    0.4166666666666667
    0.5833333333333334    0.5833333333333334    0.5833333333333334
    0.5833333333333334    0.5833333333333334    0.7500000000000000
    0.5833333333333334    0.5833333333333334    0.9166666666666666
    0.5833333333333334    0.7500000000000000    0.0833333333333333
    0.5833333333333334    0.7500000000000000    0.2500000000000000
    0.5833333333333334    0.7500000000000000    0.4166666666666667
    0.5833333333333334    0.7500000000000000    0.5833333333333334
    0.5833333333333334    0.7500000000000000    0.7500000000000000
    0.5833333333333334    0.7500000000000000    0.9166666666666666
    0.5833333333333334    0.9166666666666666    0.0833333333333333
    0.5833333333333334    0.9166666666666666    0.2500000000000000
    0.5833333333333334    0.9166666666666666    0.4166666666666667
    0.5833333333333334    0.9166666666666666    0.5833333333333334
    0.5833333333333334    0.9166666666666666    0.7500000000000000
    0.5833333333333334    0.9166666666666666    0.9166666666666666
    0.7500000000000000    0.0833333333333333    0.0833333333333333
    0.7500000000000000    0.0833333333333333    0.2500000000000000
    0.7500000000000000    0.0833333333333333    0.4166666666666667
    0.7500000000000000    0.0833333333333333    0.5833333333333334
    0.7500000000000000    0.0833333333333333    0.7500000000000000
    0.7500000000000000    0.0833333333333333    0.9166666666666666
    0.7500000000000000    0.2500000000000000    0.0833333333333333
    0.7500000000000000    0.2500000000000000    0.2500000000000000
    0.7500000000000000    0.2500000000000000    0.4166666666666667
    0.7500000000000000    0.2500000000000000    0.5833333333333334
    0.7500000000000000    0.2500000000000000    0.7500000000000000
    0.7500000000000000    0.2500000000000000    0.9166666666666666
    0.7500000000000000    0.4166666666666667    0.0833333333333333
    0.7500000000000000    0.4166666666666667    0.2500000000000000
    0.7500000000000000    0.4166666666666667    0.4166666666666667
    0.7500000000000000    0.4166666666666667    0.5833333333333334
    0.7500000000000000    0.4166666666666667    0.7500000000000000
    0.7500000000000000    0.4166666666666667    0.9166666666666666
    0.7500000000000000    0.5833333333333334    0.0833333333333333
    0.7500000000000000    0.5833333333333334    0.2500000000000000
    0.7500000000000000    0.5833333333333334    0.4166666666666667
    0.7500000000000000    0.5833333333333334    0.5833333333333334
    0.7500000000000000    0.5833333333333334    0.7500000000000000
    0.7500000000000000    0.5833333333333334    0.9166666666666666
    0.7500000000000000    0.7500000000000000    0.0833333333333333
    0.7500000000000000    0.7500000000000000    0.2500000000000000
    0.7500000000000000    0.7500000000000000    0.4166666666666667
    0.7500000000000000    0.7500000000000000    0.5833333333333334
    0.7500000000000000    0.7500000000000000    0.7500000000000000
    0.7500000000000000    0.7500000000000000    0.9166666666666666
    0.7500000000000000    0.9166666666666666    0.0833333333333333
    0.7500000000000000    0.9166666666666666    0.2500000000000000
    0.7500000000000000    0.9166666666666666    0.4166666666666667
    0.7500000000000000    0.9166666666666666    0.5833333333333334
    0.7500000000000000    0.9166666666666666    0.7500000000000000
    0.7500000000000000    0.9166666666666666    0.9166666666666666
    0.9166666666666666    0.0833333333333333    0.0833333333333333
    0.9166666666666666    0.0833333333333333    0.2500000000000000
    0.9166666666666666    0.0833333333333333    0.4166666666666667
    0.9166666666666666    0.0833333333333333    0.5833333333333334
    0.9166666666666666    0.0833333333333333    0.7500000000000000
    0.9166666666666666    0.0833333333333333    0.9166666666666666
    0.9166666666666666    0.2500000000000000    0.0833333333333333
    0.9166666666666666    0.2500000000000000    0.2500000000000000
    0.9166666666666666    0.2500000000000000    0.4166666666666667
    0.9166666666666666    0.2500000000000000    0.5833333333333334
    0.9166666666666666    0.2500000000000000    0.7500000000000000
    0.9166666666666666    0.2500000000000000    0.9166666666666666
    0.9166666666666666    0.4166666666666667    0.0833333333333333
    0.9166666666666666    0.4166666666666667    0.2500000000000000
    0.9166666666666666    0.4166666666666667    0.4166666666666667
    0.9166666666666666    0.4166666666666667    0.5833333333333334
    0.9166666666666666    0.4166666666666667    0.7500000000000000
    0.9166666666666666    0.4166666666666667    0.9166666666666666
    0.9166666666666666    0.5833333333333334    0.0833333333333333
    0.9166666666666666    0.5833333333333334    0.2500000000000000
    0.9166666666666666    0.5833333333333334    0.4166666666666667
    0.9166666666666666    0.5833333333333334    0.5833333333333334
    0.9166666666666666    0.5833333333333334    0.7500000000000000
    0.9166666666666666    0.5833333333333334    0.9166666666666666
    0.9166666666666666    0.7500000000000000    0.0833333333333333
    0.9166666666666666    0.7500000000000000    0.2500000000000000
    0.9166666666666666    0.7500000000000000    0.4166666666666667
    0.9166666666666666    0.7500000000000000    0.5833333333333334
    0.9166666666666666    0.7500000000000000    0.7500000000000000
    0.9166666666666666    0.7500000000000000    0.9166666666666666
    0.9166666666666666    0.9166666666666666    0.0833333333333333
    0.9166666666666666    0.9166666666666666    0.2500000000000000
    0.9166666666666666    0.9166666666666666    0.4166666666666667
    0.9166666666666666    0.9166666666666666    0.5833333333333334
    0.9166666666666666    0.9166666666666666    0.7500000000000000
    0.9166666666666666    0.9166666666666666    0.9166666666666666
    0.0000000000000000    0.0000000000000000    0.0000000000000000
    0.0000000000000000    0.0000000000000000    0.1666666666666667
    0.0000000000000000    0.0000000000000000    0.3333333333333333
    0.0000000000000000    0.0000000000000000    0.5000000000000000
    0.0000000000000000    0.0000000000000000    0.6666666666666666
    0.0000000000000000    0.0000000000000000    0.8333333333333334
    0.0000000000000000    0.1666666666666667    0.0000000000000000
    0.0000000000000000    0.1666666666666667    0.1666666666666667
    0.0000000000000000    0.1666666666666667    0.3333333333333333
    0.0000000000000000    0.1666666666666667    0.5000000000000000
    0.0000000000000000    0.1666666666666667    0.6666666666666666
    0.0000000000000000    0.1666666666666667    0.8333333333333334
    0.0000000000000000    0.3333333333333333    0.0000000000000000
    0.0000000000000000    0.3333333333333333    0.1666666666666667
    0.0000000000000000    0.3333333333333333    0.3333333333333333
    0.0000000000000000    0.3333333333333333    0.5000000000000000
    0.0000000000000000    0.3333333333333333    0.6666666666666666
    0.0000000000000000    0.3333333333333333    0.8333333333333334
    0.0000000000000000    0.5000000000000000    0.0000000000000000
    0.0000000000000000    0.5000000000000000    0.1666666666666667
    0.0000000000000000    0.5000000000000000    0.3333333333333333
    0.0000000000000000    0.5000000000000000    0.5000000000000000
    0.0000000000000000    0.5000000000000000    0.6666666666666666
    0.0000000000000000    0.5000000000000000    0.8333333333333334
    0.0000000000000000    0.6666666666666666    0.0000000000000000
    0.0000000000000000    0.6666666666666666    0.1666666666666667
    0.0000000000000000    0.6666666666666666    0.3333333333333333
    0.0000000000000000    0.6666666666666666    0.5000000000000000
    0.0000000000000000    0.6666666666666666    0.6666666666666666
    0.0000000000000000    0.6666666666666666    0.8333333333333334
    0.0000000000000000    0.8333333333333334    0.0000000000000000
    0.0000000000000000    0.8333333333333334    0.1666666666666667
    0.0000000000000000    0.8333333333333334    0.3333333333333333
    0.0000000000000000    0.8333333333333334    0.5000000000000000
    0.0000000000000000    0.8333333333333334    0.6666666666666666
    0.0000000000000000    0.8333333333333334    0.8333333333333334
    0.1666666666666667    0.0000000000000000    0.0000000000000000
    0.1666666666666667    0.0000000000000000    0.1666666666666667
    0.1666666666666667    0.0000000000000000    0.3333333333333333
    0.1666666666666667    0.0000000000000000    0.5000000000000000
    0.1666666666666667    0.0000000000000000    0.6666666666666666
    0.1666666666666667    0.0000000000000000    0.8333333333333334
    0.1666666666666667    0.1666666666666667    0.0000000000000000
    0.1666666666666667    0.1666666666666667    0.1666666666666667
    0.1666666666666667    0.1666666666666667    0.3333333333333333
    0.1666666666666667    0.1666666666666667    0.5000000000000000
    0.1666666666666667    0.1666666666666667    0.6666666666666666
    0.1666666666666667    0.1666666666666667    0.8333333333333334
    0.1666666666666667    0.3333333333333333    0.0000000000000000
    0.1666666666666667    0.3333333333333333    0.1666666666666667
    0.1666666666666667    0.3333333333333333    0.3333333333333333
    0.1666666666666667    0.3333333333333333    0.5000000000000000
    0.1666666666666667    0.3333333333333333    0.6666666666666666
    0.1666666666666667    0.3333333333333333    0.8333333333333334
    0.1666666666666667    0.5000000000000000    0.0000000000000000
    0.1666666666666667    0.5000000000000000    0.1666666666666667
    0.1666666666666667    0.5000000000000000    0.3333333333333333
    0.1666666666666667    0.5000000000000000    0.5000000000000000
    0.1666666666666667    0.5000000000000000    0.6666666666666666
    0.1666666666666667    0.5000000000000000    0.8333333333333334
    0.1666666666666667    0.6666666666666666    0.0000000000000000
    0.1666666666666667    0.6666666666666666    0.1666666666666667
    0.1666666666666667    0.6666666666666666    0.3333333333333333
    0.1666666666666667    0.6666666666666666    0.5000000000000000
    0.1666666666666667    0.6666666666666666    0.6666666666666666
    0.1666666666666667    0.6666666666666666    0.8333333333333334
    0.1666666666666667    0.8333333333333334    0.0000000000000000
    0.1666666666666667    0.8333333333333334    0.1666666666666667
    0.1666666666666667    0.8333333333333334    0.3333333333333333
    0.1666666666666667    0.8333333333333334    0.5000000000000000
    0.1666666666666667    0.8333333333333334    0.6666666666666666
    0.1666666666666667    0.8333333333333334    0.8333333333333334
    0.3333333333333333    0.0000000000000000    0.0000000000000000
    0.3333333333333333    0.0000000000000000    0.1666666666666667
    0.3333333333333333    0.0000000000000000    0.3333333333333333
    0.3333333333333333    0.0000000000000000    0.5000000000000000
    0.3333333333333333    0.0000000000000000    0.6666666666666666
    0.3333333333333333    0.0000000000000000    0.8333333333333334
    0.3333333333333333    0.1666666666666667    0.0000000000000000
    0.3333333333333333    0.1666666666666667    0.1666666666666667
    0.3333333333333333    0.1666666666666667    0.3333333333333333
    0.3333333333333333    0.1666666666666667    0.5000000000000000
    0.3333333333333333    0.1666666666666667    0.6666666666666666
    0.3333333333333333    0.1666666666666667    0.8333333333333334
    0.3333333333333333    0.3333333333333333    0.0000000000000000
    0.3333333333333333    0.3333333333333333    0.1666666666666667
    0.3333333333333333    0.3333333333333333    0.3333333333333333
    0.3333333333333333    0.3333333333333333    0.5000000000000000
    0.3333333333333333    0.3333333333333333    0.6666666666666666
    0.3333333333333333    0.3333333333333333    0.8333333333333334
    0.3333333333333333    0.5000000000000000    0.0000000000000000
    0.3333333333333333    0.5000000000000000    0.1666666666666667
    0.3333333333333333    0.5000000000000000    0.3333333333333333
    0.3333333333333333    0.5000000000000000    0.5000000000000000
    0.3333333333333333    0.5000000000000000    0.6666666666666666
    0.3333333333333333    0.5000000000000000    0.8333333333333334
    0.3333333333333333    0.6666666666666666    0.0000000000000000
    0.3333333333333333    0.6666666666666666    0.1666666666666667
    0.3333333333333333    0.6666666666666666    0.3333333333333333
    0.3333333333333333    0.6666666666666666    0.5000000000000000
    0.3333333333333333    0.6666666666666666    0.6666666666666666
    0.3333333333333333    0.6666666666666666    0.8333333333333334
    0.3333333333333333    0.8333333333333334    0.0000000000000000
    0.3333333333333333    0.8333333333333334    0.1666666666666667
    0.3333333333333333    0.8333333333333334    0.3333333333333333
    0.3333333333333333    0.8333333333333334    0.5000000000000000
    0.3333333333333333    0.8333333333333334    0.6666666666666666
    0.3333333333333333    0.8333333333333334    0.8333333333333334
    0.5000000000000000    0.0000000000000000    0.0000000000000000
    0.5000000000000000    0.0000000000000000    0.1666666666666667
    0.5000000000000000    0.0000000000000000    0.3333333333333333
    0.5000000000000000    0.0000000000000000    0.5000000000000000
    0.5000000000000000    0.0000000000000000    0.6666666666666666
    0.5000000000000000    0.0000000000000000    0.8333333333333334
    0.5000000000000000    0.1666666666666667    0.0000000000000000
    0.5000000000000000    0.1666666666666667    0.1666666666666667
    0.5000000000000000    0.1666666666666667    0.3333333333333333
    0.5000000000000000    0.1666666666666667    0.5000000000000000
    0.5000000000000000    0.1666666666666667    0.6666666666666666
    0.5000000000000000    0.1666666666666667    0.8333333333333334
    0.5000000000000000    0.3333333333333333    0.0000000000000000
    0.5000000000000000    0.3333333333333333    0.1666666666666667
    0.5000000000000000    0.3333333333333333    0.3333333333333333
    0.5000000000000000    0.3333333333333333    0.5000000000000000
    0.5000000000000000    0.3333333333333333    0.6666666666666666
    0.5000000000000000    0.3333333333333333    0.8333333333333334
    0.5000000000000000    0.5000000000000000    0.0000000000000000
    0.5000000000000000    0.5000000000000000    0.1666666666666667
    0.5000000000000000    0.5000000000000000    0.3333333333333333
    0.5000000000000000    0.5000000000000000    0.5000000000000000
    0.5000000000000000    0.5000000000000000    0.6666666666666666
    0.5000000000000000    0.5000000000000000    0.8333333333333334
    0.5000000000000000    0.6666666666666666    0.0000000000000000
    0.5000000000000000    0.6666666666666666    0.1666666666666667
    0.5000000000000000    0.6666666666666666    0.3333333333333333
    0.5000000000000000    0.6666666666666666    0.5000000000000000
    0.5000000000000000    0.6666666666666666    0.6666666666666666
    0.5000000000000000    0.6666666666666666    0.8333333333333334
    0.5000000000000000    0.8333333333333334    0.0000000000000000
    0.5000000000000000    0.8333333333333334    0.1666666666666667
    0.5000000000000000    0.8333333333333334    0.3333333333333333
    0.5000000000000000    0.8333333333333334    0.5000000000000000
    0.5000000000000000    0.8333333333333334    0.6666666666666666
    0.5000000000000000    0.8333333333333334    0.8333333333333334
    0.6666666666666666    0.0000000000000000    0.0000000000000000
    0.6666666666666666    0.0000000000000000    0.1666666666666667
    0.6666666666666666    0.0000000000000000    0.3333333333333333
    0.6666666666666666    0.0000000000000000    0.5000000000000000
    0.6666666666666666    0.0000000000000000    0.6666666666666666
    0.6666666666666666    0.0000000000000000    0.8333333333333334
    0.6666666666666666    0.1666666666666667    0.0000000000000000
    0.6666666666666666    0.1666666666666667    0.1666666666666667
    0.6666666666666666    0.1666666666666667    0.3333333333333333
    0.6666666666666666    0.1666666666666667    0.5000000000000000
    0.6666666666666666    0.1666666666666667    0.6666666666666666
    0.6666666666666666    0.1666666666666667    0.8333333333333334
    0.6666666666666666    0.3333333333333333    0.0000000000000000
    0.6666666666666666    0.3333333333333333    0.1666666666666667
    0.6666666666666666    0.3333333333333333    0.3333333333333333
    0.6666666666666666    0.3333333333333333    0.5000000000000000
    0.6666666666666666    0.3333333333333333    0.6666666666666666
    0.6666666666666666    0.3333333333333333    0.8333333333333334
    0.6666666666666666    0.5000000000000000    0.0000000000000000
    0.6666666666666666    0.5000000000000000    0.1666666666666667
    0.6666666666666666    0.5000000000000000    0.3333333333333333
    0.6666666666666666    0.5000000000000000    0.5000000000000000
    0.6666666666666666    0.5000000000000000    0.6666666666666666
    0.6666666666666666    0.5000000000000000    0.8333333333333334
    0.6666666666666666    0.6666666666666666    0.0000000000000000
    0.6666666666666666    0.6666666666666666    0.1666666666666667
    0.6666666666666666    0.6666666666666666    0.3333333333333333
    0.6666666666666666    0.6666666666666666    0.5000000000000000
    0.6666666666666666    0.6666666666666666    0.6666666666666666
    0.6666666666666666    0.6666666666666666    0.8333333333333334
    0.6666666666666666    0.8333333333333334    0.0000000000000000
    0.6666666666666666    0.8333333333333334    0.1666666666666667
    0.6666666666666666    0.8333333333333334    0.3333333333333333
    0.6666666666666666    0.8333333333333334    0.5000000000000000
    0.6666666666666666    0.8333333333333334    0.6666666666666666
    0.6666666666666666    0.8333333333333334    0.8333333333333334
    0.8333333333333334    0.0000000000000000    0.0000000000000000
    0.8333333333333334    0.0000000000000000    0.1666666666666667
    0.8333333333333334    0.0000000000000000    0.3333333333333333
    0.8333333333333334    0.0000000000000000    0.5000000000000000
    0.8333333333333334    0.0000000000000000    0.6666666666666666
    0.8333333333333334    0.0000000000000000    0.8333333333333334
    0.8333333333333334    0.1666666666666667    0.0000000000000000
    0.8333333333333334    0.1666666666666667    0.1666666666666667
    0.8333333333333334    0.1666666666666667    0.3333333333333333
    0.8333333333333334    0.1666666666666667    0.5000000000000000
    0.8333333333333334    0.1666666666666667    0.6666666666666666
    0.8333333333333334    0.1666666666666667    0.8333333333333334
    0.8333333333333334    0.3333333333333333    0.0000000000000000
    0.8333333333333334    0.3333333333333333    0.1666666666666667
    0.8333333333333334    0.3333333333333333    0.3333333333333333
    0.8333333333333334    0.3333333333333333    0.5000000000000000
    0.8333333333333334    0.3333333333333333    0.6666666666666666
    0.8333333333333334    0.3333333333333333    0.8333333333333334
    0.8333333333333334    0.5000000000000000    0.0000000000000000
    0.8333333333333334    0.5000000000000000    0.1666666666666667
    0.8333333333333334    0.5000000000000000    0.3333333333333333
    0.8333333333333334    0.5000000000000000    0.5000000000000000
    0.8333333333333334    0.5000000000000000    0.6666666666666666
    0.8333333333333334    0.5000000000000000    0.8333333333333334
    0.8333333333333334    0.6666666666666666    0.0000000000000000
    0.8333333333333334    0.6666666666666666    0.1666666666666667
    0.8333333333333334    0.6666666666666666    0.3333333333333333
    0.8333333333333334    0.6666666666666666    0.5000000000000000
    0.8333333333333334    0.6666666666666666    0.6666666666666666
    0.8333333333333334    0.6666666666666666    0.8333333333333334
    0.8333333333333334    0.8333333333333334    0.0000000000000000
    0.8333333333333334    0.8333333333333334    0.1666666666666667
    0.8333333333333334    0.8333333333333334    0.3333333333333333
    0.8333333333333334    0.8333333333333334    0.5000000000000000
    0.8333333333333334    0.8333333333333334    0.6666666666666666
    0.8333333333333334    0.8333333333333334    0.8333333333333334
    0.0833333333333333    0.0000000000000000    0.0000000000000000
    0.0833333333333333    0.0000000000000000    0.1666666666666667
    0.0833333333333333    0.0000000000000000    0.3333333333333333
    0.0833333333333333    0.0000000000000000    0.5000000000000000
    0.0833333333333333    0.0000000000000000    0.6666666666666666
    0.0833333333333333    0.0000000000000000    0.8333333333333334
    0.0833333333333333    0.1666666666666667    0.0000000000000000
    0.0833333333333333    0.1666666666666667    0.1666666666666667
    0.0833333333333333    0.1666666666666667    0.3333333333333333
    0.0833333333333333    0.1666666666666667    0.5000000000000000
    0.0833333333333333    0.1666666666666667    0.6666666666666666